
Gurobi 10.0.1 (win64) logging started Sat Jun 10 18:09:31 2023

Set parameter LogFile to value "results/log/Fattahi_setup_02_modified_deadline.log"
Gurobi Optimizer version 10.0.1 build v10.0.1rc0 (win64)

CPU model: AMD Ryzen 7 3700X 8-Core Processor, instruction set [SSE2|AVX|AVX2]
Thread count: 8 physical cores, 16 logical processors, using up to 16 threads

Optimize a model with 41 rows, 35 columns and 118 nonzeros
Model fingerprint: 0xea4aaeba
Variable types: 0 continuous, 35 integer (28 binary)
Coefficient statistics:
  Matrix range     [1e+00, 1e+09]
  Objective range  [1e+00, 1e+00]
  Bounds range     [1e+00, 1e+00]
  RHS range        [1e+00, 3e+09]
Warning: Model contains large matrix coefficients
Warning: Model contains large rhs
         Consider reformulating model or setting NumericFocus parameter
         to avoid numerical issues.
Presolve removed 22 rows and 24 columns
Presolve time: 0.00s
Presolved: 19 rows, 11 columns, 64 nonzeros
Variable types: 0 continuous, 11 integer (5 binary)

Root relaxation: objective 1.130000e+02, 4 iterations, 0.00 seconds (0.00 work units)

    Nodes    |    Current Node    |     Objective Bounds      |     Work
 Expl Unexpl |  Obj  Depth IntInf | Incumbent    BestBd   Gap | It/Node Time

     0     0  113.00000    0    1          -  113.00000      -     -    0s
H    0     0                     177.0000000  113.00000  36.2%     -    0s
H    0     0                     132.0000000  113.00000  14.4%     -    0s

Explored 1 nodes (4 simplex iterations) in 0.00 seconds (0.00 work units)
Thread count was 16 (of 16 available processors)

Solution count 2: 132 177 

Optimal solution found (tolerance 1.00e-04)
Best objective 1.320000000000e+02, best bound 1.320000000000e+02, gap 0.0000%
Warning: variable name "y[job:0, stage:0, machine:1]" has a space
Warning: constraint name "precedence between 1,0 to 0,0 if x_[j,l,h,z,i]=1" has a space
Warning: to let Gurobi read it back, use rlp format
Warning: variable name "y[job:0, stage:0, machine:1]" has a space
Warning: constraint name "precedence between 1,0 to 0,0 if x_[j,l,h,z,i]=1" has a space
Warning: default variable names used to write mps file
Warning: default constraint names used to write mps file
Warning: variable name "y[job:0, stage:0, machine:1]" has a space
Warning: default variable names used to write solution file
